20 3
7 8 9
0 0 0 0 11 2 3 4 5 6 7 8 9 10 17 19
6 2 2 3 2 18 16
13 3 3 2 1 20
18 2 3 3 1 16
5 3 2 3 1 14
8 2 3 2 2 16 11
5 2 3 2 1 20
10 3 3 2 1 13
7 2 3 3 1 20
17 3 3 3 1 12
5 3 3 3 1 18
14 2 2 3 1 15
13 2 3 2 1 20
5 2 2 3 1 20
9 2 2 2 1 20
19 3 3 3 1 20
8 3 3 3 1 20
16 2 3 3 1 20
15 3 3 2 1 20
0 0 0 0 0
